0 18060 
1 17946 
2 17866 
3 17632 
4 17500 
5 17460 
6 17424 
7 17394 
8 17362 
9 17348 
10 16918 
11 16908 
12 16860 
13 16820 
14 16788 
15 16738 
16 16526 
17 16436 
18 16144 
19 16072 
20 16072 
21 15958 
22 15942 
23 15926 
24 15822 
25 15780 
26 15738 
27 15604 
28 15528 
29 15424 
30 15350 
31 14658 
32 14646 
33 14586 
34 14578 
35 14518 
36 14474 
37 13954 
38 13918 
39 13778 
40 13742 
41 13592 
42 13492 
43 13330 
44 13196 
45 13188 
46 13152 
47 13104 
48 13062 
49 12932 
50 12918 
51 12812 
52 12622 
53 12362 
54 12352 
55 12244 
56 12234 
57 12138 
58 12042 
59 11884 
60 11804 
61 11674 
62 11610 
63 11600 
64 11502 
65 11492 
66 11432 
67 11378 
68 11180 
69 11030 
70 11000 
71 10920 
72 10890 
73 10748 
74 10554 
75 10508 
76 10358 
77 10302 
78 10300 
79 10252 
80 10148 
81 10140 
82 10118 
83 9952 
84 9934 
85 9824 
86 9810 
87 9666 
88 9576 
89 9554 
90 9410 
91 9376 
92 9302 
93 9152 
94 8990 
95 8918 
96 8792 
97 8506 
98 8320 
99 8290 
100 8272 
101 7992 
102 7976 
103 7902 
104 7798 
105 7708 
106 7442 
107 7410 
108 7284 
109 7264 
110 7228 
111 7214 
112 7208 
113 7200 
114 7084 
115 7034 
116 6986 
117 6944 
118 6840 
119 6716 
120 6670 
121 6632 
122 6194 
123 6190 
124 5868 
125 5796 
126 5718 
127 5620 
128 5610 
129 5458 
130 5458 
131 5458 
132 5458 
133 5458 
134 5458 
135 5458 
136 5458 
137 5458 
138 5458 
139 5458 
140 5458 
141 5458 
142 5458 
143 5458 
144 5458 
145 5458 
146 5458 
147 5458 
148 5458 
149 5458 
150 5458 
151 5458 
152 5458 
153 5458 
154 5458 
155 5458 
156 5458 
157 5458 
158 5458 
159 5458 
160 5458 
161 5458 
162 5458 
163 5458 
164 5458 
165 5458 
166 5458 
167 5458 
168 5458 
169 5458 
170 5458 
171 5458 
172 5458 
173 5458 
174 5458 
175 5458 
176 5458 
177 5458 
178 5458 
179 5458 
180 5458 
181 5458 
182 5458 
183 5458 
184 5458 
185 5458 
186 5458 
187 5458 
188 5458 
189 5458 
190 5458 
191 5458 
192 5458 
193 5458 
194 5458 
195 5458 
196 5458 
197 5458 
198 5458 
199 5458 
200 5458 
201 5458 
202 5458 
203 5458 
204 5458 
205 5458 
206 5458 
207 5458 
208 5458 
209 5458 
210 5458 
211 5458 
212 5458 
213 5458 
214 5458 
215 5458 
216 5458 
217 5458 
218 5458 
219 5458 
220 5458 
221 5458 
222 5458 
223 5458 
224 5458 
225 5458 
226 5458 
227 5458 
228 5458 
229 5458 
230 5458 
231 5458 
232 5458 
233 5458 
234 5458 
235 5458 
236 5458 
237 5458 
238 5458 
239 5458 
240 5458 
241 5458 
242 5458 
243 5458 
244 5458 
245 5458 
246 5458 
247 5458 
248 5458 
249 5458 
250 5458 
251 5458 
252 5458 
253 5458 
254 5458 
255 5458 
256 5458 
257 5458 
258 5458 
259 5458 
260 5458 
261 5458 
262 5458 
263 5458 
264 5458 
265 5458 
266 5458 
267 5458 
268 5458 
269 5458 
270 5458 
271 5458 
272 5458 
273 5458 
274 5458 
275 5458 
276 5458 
277 5458 
278 5458 
279 5458 
280 5458 
281 5458 
282 5458 
283 5458 
284 5458 
285 5458 
286 5458 
287 5458 
288 5458 
289 5458 
290 5458 
291 5458 
292 5458 
293 5458 
294 5458 
295 5458 
296 5458 
297 5458 
298 5458 
299 5458 
300 5458 
301 5458 
302 5458 
303 5458 
304 5458 
305 5458 
306 5458 
307 5458 
308 5458 
309 5458 
310 5458 
311 5458 
312 5458 
313 5458 
314 5458 
315 5458 
316 5458 
317 5458 
318 5458 
319 5458 
320 5458 
321 5458 
322 5458 
323 5458 
324 5458 
325 5458 
326 5458 
327 5458 
328 5458 
329 5458 
330 5458 
331 5458 
332 5458 
333 5458 
334 5458 
335 5458 
336 5458 
337 5458 
338 5458 
339 5458 
340 5458 
341 5458 
342 5458 
343 5458 
344 5458 
345 5458 
346 5458 
347 5458 
348 5458 
349 5458 
350 5458 
351 5458 
352 5458 
353 5458 
354 5458 
355 5458 
356 5458 
357 5458 
358 5458 
359 5458 
360 5458 
361 5458 
362 5458 
363 5458 
364 5458 
365 5458 
366 5458 
367 5458 
368 5458 
369 5458 
370 5458 
371 5458 
372 5458 
373 5458 
374 5458 
375 5458 
376 5458 
377 5458 
378 5458 
379 5458 
380 5458 
381 5458 
382 5458 
383 5458 
384 5458 
385 5458 
386 5458 
387 5458 
388 5458 
389 5458 
390 5458 
391 5458 
392 5458 
393 5458 
394 5458 
395 5458 
396 5458 
397 5458 
398 5458 
399 5458 
400 5458 
401 5458 
402 5458 
403 5458 
404 5458 
405 5458 
406 5458 
407 5458 
408 5458 
409 5458 
410 5458 
411 5458 
412 5458 
413 5458 
414 5458 
415 5458 
416 5458 
417 5458 
418 5458 
419 5458 
420 5458 
421 5458 
422 5458 
423 5458 
424 5458 
425 5458 
426 5458 
427 5458 
428 5458 
429 5458 
430 5458 
431 5458 
432 5458 
433 5458 
434 5458 
435 5458 
436 5458 
437 5458 
438 5458 
439 5458 
440 5458 
441 5458 
442 5458 
443 5458 
444 5458 
445 5458 
446 5458 
447 5458 
448 5458 
449 5458 
450 5458 
451 5458 
452 5458 
453 5458 
454 5458 
455 5458 
456 5458 
457 5458 
458 5458 
459 5458 
460 5458 
461 5458 
462 5458 
463 5458 
464 5458 
465 5458 
466 5458 
467 5458 
468 5458 
469 5458 
470 5458 
471 5458 
472 5458 
473 5458 
474 5458 
475 5458 
476 5458 
477 5458 
478 5458 
479 5458 
480 5458 
481 5458 
482 5458 
483 5458 
484 5458 
485 5458 
486 5458 
487 5458 
488 5458 
489 5458 
490 5458 
491 5458 
492 5458 
493 5458 
494 5458 
495 5458 
496 5458 
497 5458 
498 5458 
499 5458 
500 5458 
501 5458 
502 5458 
503 5458 
504 5458 
505 5458 
506 5458 
507 5458 
508 5458 
509 5458 
510 5458 
511 5458 
512 5458 
513 5458 
514 5458 
515 5458 
516 5458 
517 5458 
518 5458 
519 5458 
520 5458 
521 5458 
522 5458 
523 5458 
524 5458 
525 5458 
526 5458 
527 5458 
528 5458 
529 5458 
530 5458 
531 5458 
532 5458 
533 5458 
534 5458 
535 5458 
536 5458 
537 5458 
538 5458 
539 5458 
540 5458 
541 5458 
542 5458 
543 5458 
544 5458 
545 5458 
546 5458 
547 5458 
548 5458 
549 5458 
550 5458 
551 5458 
552 5458 
553 5458 
554 5458 
555 5458 
556 5458 
557 5458 
558 5458 
559 5458 
560 5458 
561 5458 
562 5458 
563 5458 
564 5458 
565 5458 
566 5458 
567 5458 
568 5458 
569 5458 
570 5458 
571 5458 
572 5458 
573 5458 
574 5458 
575 5458 
576 5458 
577 5458 
578 5458 
579 5458 
580 5458 
581 5458 
582 5458 
583 5458 
584 5458 
585 5458 
586 5458 
587 5458 
588 5458 
589 5458 
590 5458 
591 5458 
592 5458 
593 5458 
594 5458 
595 5458 
596 5458 
597 5458 
598 5458 
599 5458 
600 5458 
601 5458 
602 5458 
603 5458 
604 5458 
605 5458 
606 5458 
607 5458 
608 5458 
609 5458 
610 5458 
611 5458 
612 5458 
613 5458 
614 5458 
615 5458 
616 5458 
617 5458 
618 5458 
619 5458 
620 5458 
621 5458 
622 5458 
623 5458 
624 5458 
625 5458 
626 5458 
627 5458 
628 5458 
629 5458 
630 5458 
631 5458 
632 5458 
633 5458 
634 5458 
635 5458 
636 5458 
637 5458 
638 5458 
639 5458 
640 5458 
641 5458 
642 5458 
643 5458 
644 5458 
645 5458 
646 5458 
647 5458 
648 5458 
649 5458 
650 5458 
651 5458 
652 5458 
653 5458 
654 5458 
655 5458 
656 5458 
657 5458 
658 5458 
659 5458 
660 5458 
661 5458 
662 5458 
663 5458 
664 5458 
665 5458 
666 5458 
667 5458 
668 5458 
669 5458 
670 5458 
671 5458 
672 5458 
673 5458 
674 5458 
675 5458 
676 5458 
677 5458 
678 5458 
679 5458 
680 5458 
681 5458 
682 5458 
683 5458 
684 5458 
685 5458 
686 5458 
687 5458 
688 5458 
689 5458 
690 5458 
691 5458 
692 5458 
693 5458 
694 5458 
695 5458 
696 5458 
697 5458 
698 5458 
699 5458 
700 5458 
701 5458 
702 5458 
703 5458 
704 5458 
705 5458 
706 5458 
707 5458 
708 5458 
709 5458 
710 5458 
711 5458 
712 5458 
713 5458 
714 5458 
715 5458 
716 5458 
717 5458 
718 5458 
719 5458 
720 5458 
721 5458 
722 5458 
723 5458 
724 5458 
725 5458 
726 5458 
727 5458 
728 5458 
729 5458 
730 5458 
731 5458 
732 5458 
733 5458 
734 5458 
735 5458 
736 5458 
737 5458 
738 5458 
739 5458 
740 5458 
741 5458 
742 5458 
743 5458 
744 5458 
745 5458 
746 5458 
747 5458 
748 5458 
749 5458 
750 5458 
751 5458 
752 5458 
753 5458 
754 5458 
755 5458 
756 5458 
757 5458 
758 5458 
759 5458 
760 5458 
761 5458 
762 5458 
763 5458 
764 5458 
765 5458 
766 5458 
767 5458 
768 5458 
769 5458 
770 5458 
771 5458 
772 5458 
773 5458 
774 5458 
775 5458 
776 5458 
777 5458 
778 5458 
779 5458 
780 5458 
781 5458 
782 5458 
783 5458 
784 5458 
785 5458 
786 5458 
787 5458 
788 5458 
789 5458 
790 5458 
791 5458 
792 5458 
793 5458 
794 5458 
795 5458 
796 5458 
797 5458 
798 5458 
799 5458 
800 5458 
801 5458 
802 5458 
803 5458 
804 5458 
805 5458 
806 5458 
807 5458 
808 5458 
809 5458 
810 5458 
811 5458 
812 5458 
813 5458 
814 5458 
815 5458 
816 5458 
817 5458 
818 5458 
819 5458 
820 5458 
821 5458 
822 5458 
823 5458 
824 5458 
825 5458 
826 5458 
827 5458 
828 5458 
829 5458 
830 5458 
831 5458 
832 5458 
833 5458 
834 5458 
835 5458 
836 5458 
837 5458 
838 5458 
839 5458 
840 5458 
841 5458 
842 5458 
843 5458 
844 5458 
845 5458 
846 5458 
847 5458 
848 5458 
849 5458 
850 5458 
851 5458 
852 5458 
853 5458 
854 5458 
855 5458 
856 5458 
857 5458 
858 5458 
859 5458 
860 5458 
861 5458 
862 5458 
863 5458 
864 5458 
865 5458 
866 5458 
867 5458 
868 5458 
869 5458 
870 5458 
871 5458 
872 5458 
873 5458 
874 5458 
875 5458 
876 5458 
877 5458 
878 5458 
879 5458 
880 5458 
881 5458 
882 5458 
883 5458 
884 5458 
885 5458 
886 5458 
887 5458 
888 5458 
889 5458 
890 5458 
891 5458 
892 5458 
893 5458 
894 5458 
895 5458 
896 5458 
897 5458 
898 5458 
899 5458 
900 5458 
901 5458 
902 5458 
903 5458 
904 5458 
905 5458 
906 5458 
907 5458 
908 5458 
909 5458 
910 5458 
911 5458 
912 5458 
913 5458 
914 5458 
915 5458 
916 5458 
917 5458 
918 5458 
919 5458 
920 5458 
921 5458 
922 5458 
923 5458 
924 5458 
925 5458 
926 5458 
927 5458 
928 5458 
929 5458 
930 5458 
931 5458 
932 5458 
933 5458 
934 5458 
935 5458 
936 5458 
937 5458 
938 5458 
939 5458 
940 5458 
941 5458 
942 5458 
943 5458 
944 5458 
945 5458 
946 5458 
947 5458 
948 5458 
949 5458 
950 5458 
951 5458 
952 5458 
953 5458 
954 5458 
955 5458 
956 5458 
957 5458 
958 5458 
959 5458 
960 5458 
961 5458 
962 5458 
963 5458 
964 5458 
965 5458 
966 5458 
967 5458 
968 5458 
969 5458 
970 5458 
971 5458 
972 5458 
973 5458 
974 5458 
975 5458 
976 5458 
977 5458 
978 5458 
979 5458 
980 5458 
981 5458 
982 5458 
983 5458 
984 5458 
985 5458 
986 5458 
987 5458 
988 5458 
989 5458 
990 5458 
991 5458 
992 5458 
993 5458 
994 5458 
995 5458 
996 5458 
997 5458 
998 5458 
999 5458 
1000 5458 
1001 5458 
1002 5458 
1003 5458 
1004 5458 
1005 5458 
1006 5458 
1007 5458 
1008 5458 
1009 5458 
1010 5458 
1011 5458 
1012 5458 
1013 5458 
1014 5458 
1015 5458 
1016 5458 
1017 5458 
1018 5458 
1019 5458 
1020 5458 
1021 5458 
1022 5458 
1023 5458 
1024 5458 
1025 5458 
1026 5458 
1027 5458 
1028 5458 
1029 5458 
1030 5458 
1031 5458 
1032 5458 
1033 5458 
1034 5458 
1035 5458 
1036 5458 
1037 5458 
1038 5458 
1039 5458 
1040 5458 
1041 5458 
1042 5458 
1043 5458 
1044 5458 
1045 5458 
1046 5458 
1047 5458 
1048 5458 
1049 5458 
1050 5458 
1051 5458 
1052 5458 
1053 5458 
1054 5458 
1055 5458 
1056 5458 
1057 5458 
1058 5458 
1059 5458 
1060 5458 
1061 5458 
1062 5458 
1063 5458 
1064 5458 
1065 5458 
1066 5458 
1067 5458 
1068 5458 
1069 5458 
1070 5458 
1071 5458 
1072 5458 
1073 5458 
1074 5458 
1075 5458 
1076 5458 
1077 5458 
1078 5458 
1079 5458 
1080 5458 
1081 5458 
1082 5458 
1083 5458 
1084 5458 
1085 5458 
1086 5458 
1087 5458 
1088 5458 
1089 5458 
1090 5458 
1091 5458 
1092 5458 
1093 5458 
1094 5458 
1095 5458 
1096 5458 
1097 5458 
1098 5458 
1099 5458 
1100 5458 
1101 5458 
1102 5458 
1103 5458 
1104 5458 
1105 5458 
1106 5458 
1107 5458 
1108 5458 
1109 5458 
1110 5458 
1111 5458 
1112 5458 
1113 5458 
1114 5458 
1115 5458 
1116 5458 
1117 5458 
1118 5458 
1119 5458 
1120 5458 
1121 5458 
1122 5458 
1123 5458 
1124 5458 
1125 5458 
1126 5458 
1127 5458 
1128 5458 
1129 5458 
1130 5458 
1131 5458 
1132 5458 
1133 5458 
1134 5458 
1135 5458 
1136 5458 
1137 5458 
1138 5458 
1139 5458 
1140 5458 
1141 5458 
1142 5458 
1143 5458 
1144 5458 
1145 5458 
1146 5458 
1147 5458 
1148 5458 
1149 5458 
1150 5458 
1151 5458 
1152 5458 
1153 5458 
1154 5458 
1155 5458 
1156 5458 
1157 5458 
1158 5458 
1159 5458 
1160 5458 
1161 5458 
1162 5458 
1163 5458 
1164 5458 
1165 5458 
1166 5458 
1167 5458 
1168 5458 
1169 5458 
1170 5458 
1171 5458 
1172 5458 
1173 5458 
1174 5458 
1175 5458 
1176 5458 
1177 5458 
1178 5458 
1179 5458 
1180 5458 
1181 5458 
1182 5458 
1183 5458 
1184 5458 
1185 5458 
1186 5458 
1187 5458 
1188 5458 
1189 5458 
1190 5458 
1191 5458 
1192 5458 
1193 5458 
1194 5458 
1195 5458 
1196 5458 
1197 5458 
1198 5458 
1199 5458 
1200 5458 
1201 5458 
1202 5458 
1203 5458 
1204 5458 
1205 5458 
1206 5458 
1207 5458 
1208 5458 
1209 5458 
1210 5458 
1211 5458 
1212 5458 
1213 5458 
1214 5458 
1215 5458 
1216 5458 
1217 5458 
1218 5458 
1219 5458 
1220 5458 
1221 5458 
1222 5458 
1223 5458 
1224 5458 
1225 5458 
1226 5458 
1227 5458 
1228 5458 
1229 5458 
1230 5458 
1231 5458 
1232 5458 
1233 5458 
1234 5458 
1235 5458 
1236 5458 
1237 5458 
1238 5458 
1239 5458 
1240 5458 
1241 5458 
1242 5458 
1243 5458 
1244 5458 
1245 5458 
1246 5458 
1247 5458 
1248 5458 
1249 5458 
1250 5458 
1251 5458 
1252 5458 
1253 5458 
1254 5458 
1255 5458 
1256 5458 
1257 5458 
1258 5458 
1259 5458 
1260 5458 
1261 5458 
1262 5458 
1263 5458 
1264 5458 
1265 5458 
1266 5458 
1267 5458 
1268 5458 
1269 5458 
1270 5458 
1271 5458 
1272 5458 
1273 5458 
1274 5458 
1275 5458 
1276 5458 
1277 5458 
1278 5458 
1279 5458 
1280 5458 
1281 5458 
1282 5458 
1283 5458 
1284 5458 
1285 5458 
1286 5458 
1287 5458 
1288 5458 
1289 5458 
1290 5458 
1291 5458 
1292 5458 
1293 5458 
1294 5458 
1295 5458 
1296 5458 
1297 5458 
1298 5458 
1299 5458 
1300 5458 
1301 5458 
1302 5458 
1303 5458 
1304 5458 
1305 5458 
1306 5458 
1307 5458 
1308 5458 
1309 5458 
1310 5458 
1311 5458 
1312 5458 
1313 5458 
1314 5458 
1315 5458 
1316 5458 
1317 5458 
1318 5458 
1319 5458 
1320 5458 
1321 5458 
1322 5458 
1323 5458 
1324 5458 
1325 5458 
1326 5458 
1327 5458 
1328 5458 
1329 5458 
1330 5458 
1331 5458 
1332 5458 
1333 5458 
1334 5458 
1335 5458 
1336 5458 
1337 5458 
1338 5458 
1339 5458 
1340 5458 
1341 5458 
1342 5458 
1343 5458 
1344 5458 
1345 5458 
1346 5458 
1347 5458 
1348 5458 
1349 5458 
1350 5458 
1351 5458 
1352 5458 
1353 5458 
1354 5458 
1355 5458 
1356 5458 
1357 5458 
1358 5458 
1359 5458 
1360 5458 
1361 5458 
1362 5458 
1363 5458 
1364 5458 
1365 5458 
1366 5458 
1367 5458 
1368 5458 
1369 5458 
1370 5458 
1371 5458 
1372 5458 
1373 5458 
1374 5458 
1375 5458 
1376 5458 
1377 5458 
1378 5458 
1379 5458 
1380 5458 
1381 5458 
1382 5458 
1383 5458 
1384 5458 
1385 5458 
1386 5458 
1387 5458 
1388 5458 
1389 5458 
1390 5458 
1391 5458 
1392 5458 
1393 5458 
1394 5458 
1395 5458 
1396 5458 
1397 5458 
1398 5458 
1399 5458 
1400 5458 
1401 5458 
1402 5458 
1403 5458 
1404 5458 
1405 5458 
1406 5458 
1407 5458 
1408 5458 
1409 5458 
1410 5458 
1411 5458 
1412 5458 
1413 5458 
1414 5458 
1415 5458 
1416 5458 
1417 5458 
1418 5458 
1419 5458 
1420 5458 
1421 5458 
1422 5458 
1423 5458 
1424 5458 
1425 5458 
1426 5458 
1427 5458 
1428 5458 
1429 5458 
1430 5458 
1431 5458 
1432 5458 
1433 5458 
1434 5458 
1435 5458 
1436 5458 
1437 5458 
1438 5458 
1439 5458 
1440 5458 
1441 5458 
1442 5458 
1443 5458 
1444 5458 
1445 5458 
1446 5458 
1447 5458 
1448 5458 
1449 5458 
1450 5458 
1451 5458 
1452 5458 
1453 5458 
1454 5458 
1455 5458 
1456 5458 
1457 5458 
1458 5458 
1459 5458 
1460 5458 
1461 5458 
1462 5458 
1463 5458 
1464 5458 
1465 5458 
1466 5458 
1467 5458 
1468 5458 
1469 5458 
1470 5458 
1471 5458 
1472 5458 
1473 5458 
1474 5458 
1475 5458 
1476 5458 
1477 5458 
1478 5458 
1479 5458 
1480 5458 
1481 5458 
1482 5458 
1483 5458 
1484 5458 
1485 5458 
1486 5458 
1487 5458 
1488 5458 
1489 5458 
1490 5458 
1491 5458 
1492 5458 
1493 5458 
1494 5458 
1495 5458 
1496 5458 
1497 5458 
1498 5458 
1499 5458 
1500 5458 
1501 5458 
1502 5458 
1503 5458 
1504 5458 
1505 5458 
1506 5458 
1507 5458 
1508 5458 
1509 5458 
1510 5458 
1511 5458 
1512 5458 
1513 5458 
1514 5458 
1515 5458 
1516 5458 
1517 5458 
1518 5458 
1519 5458 
1520 5458 
1521 5458 
1522 5458 
1523 5458 
1524 5458 
1525 5458 
1526 5458 
1527 5458 
1528 5458 
1529 5458 
1530 5458 
1531 5458 
1532 5458 
1533 5458 
1534 5458 
1535 5458 
1536 5458 
1537 5458 
1538 5458 
1539 5458 
1540 5458 
1541 5458 
1542 5458 
1543 5458 
1544 5458 
1545 5458 
1546 5458 
1547 5458 
1548 5458 
1549 5458 
1550 5458 
1551 5458 
1552 5458 
1553 5458 
1554 5458 
1555 5458 
1556 5458 
1557 5458 
1558 5458 
1559 5458 
1560 5458 
1561 5458 
1562 5458 
1563 5458 
1564 5458 
1565 5458 
1566 5458 
1567 5458 
1568 5458 
1569 5458 
1570 5458 
1571 5458 
1572 5458 
1573 5458 
1574 5458 
1575 5458 
1576 5458 
1577 5458 
1578 5458 
1579 5458 
1580 5458 
1581 5458 
1582 5458 
1583 5458 
1584 5458 
1585 5458 
1586 5458 
1587 5458 
1588 5458 
1589 5458 
1590 5458 
1591 5458 
1592 5458 
1593 5458 
1594 5458 
1595 5458 
1596 5458 
1597 5458 
1598 5458 
1599 5458 
1600 5458 
1601 5458 
1602 5458 
1603 5458 
1604 5458 
1605 5458 
1606 5458 
1607 5458 
1608 5458 
1609 5458 
1610 5458 
1611 5458 
1612 5458 
1613 5458 
1614 5458 
1615 5458 
1616 5458 
1617 5458 
1618 5458 
1619 5458 
1620 5458 
1621 5458 
1622 5458 
1623 5458 
1624 5458 
1625 5458 
1626 5458 
1627 5458 
1628 5458 
1629 5458 
1630 5458 
1631 5458 
1632 5458 
1633 5458 
1634 5458 
1635 5458 
1636 5458 
1637 5458 
1638 5458 
1639 5458 
1640 5458 
1641 5458 
1642 5458 
1643 5458 
1644 5458 
1645 5458 
1646 5458 
1647 5458 
1648 5458 
1649 5458 
1650 5458 
1651 5458 
1652 5458 
1653 5458 
1654 5458 
1655 5458 
1656 5458 
1657 5458 
1658 5458 
1659 5458 
1660 5458 
1661 5458 
1662 5458 
1663 5458 
1664 5458 
1665 5458 
1666 5458 
1667 5458 
1668 5458 
1669 5458 
1670 5458 
1671 5458 
1672 5458 
1673 5458 
1674 5458 
1675 5458 
1676 5458 
1677 5458 
1678 5458 
1679 5458 
1680 5458 
1681 5458 
1682 5458 
1683 5458 
1684 5458 
1685 5458 
1686 5458 
1687 5458 
1688 5458 
1689 5458 
1690 5458 
1691 5458 
1692 5458 
1693 5458 
1694 5458 
1695 5458 
1696 5458 
1697 5458 
1698 5458 
1699 5458 
1700 5458 
1701 5458 
1702 5458 
1703 5458 
1704 5458 
1705 5458 
1706 5458 
1707 5458 
1708 5458 
1709 5458 
1710 5458 
1711 5458 
1712 5458 
1713 5458 
1714 5458 
1715 5458 
1716 5458 
1717 5458 
1718 5458 
1719 5458 
1720 5458 
1721 5458 
1722 5458 
1723 5458 
1724 5458 
1725 5458 
1726 5458 
1727 5458 
1728 5458 
1729 5458 
1730 5458 
1731 5458 
1732 5458 
1733 5458 
1734 5458 
1735 5458 
1736 5458 
1737 5458 
1738 5458 
1739 5458 
1740 5458 
1741 5458 
1742 5458 
1743 5458 
1744 5458 
1745 5458 
1746 5458 
1747 5458 
1748 5458 
1749 5458 
1750 5458 
1751 5458 
1752 5458 
1753 5458 
1754 5458 
1755 5458 
1756 5458 
1757 5458 
1758 5458 
1759 5458 
1760 5458 
1761 5458 
1762 5458 
1763 5458 
1764 5458 
1765 5458 
1766 5458 
1767 5458 
1768 5458 
1769 5458 
1770 5458 
1771 5458 
1772 5458 
1773 5458 
1774 5458 
1775 5458 
1776 5458 
1777 5458 
1778 5458 
1779 5458 
1780 5458 
1781 5458 
1782 5458 
1783 5458 
1784 5458 
1785 5458 
1786 5458 
1787 5458 
1788 5458 
1789 5458 
1790 5458 
1791 5458 
1792 5458 
1793 5458 
1794 5458 
1795 5458 
1796 5458 
1797 5458 
1798 5458 
1799 5458 
1800 5458 
1801 5458 
1802 5458 
1803 5458 
1804 5458 
1805 5458 
1806 5458 
1807 5458 
1808 5458 
1809 5458 
1810 5458 
1811 5458 
1812 5458 
1813 5458 
1814 5458 
1815 5458 
1816 5458 
1817 5458 
1818 5458 
1819 5458 
1820 5458 
1821 5458 
1822 5458 
1823 5458 
1824 5458 
1825 5458 
1826 5458 
1827 5458 
1828 5458 
1829 5458 
1830 5458 
1831 5458 
1832 5458 
1833 5458 
1834 5458 
1835 5458 
1836 5458 
1837 5458 
1838 5458 
1839 5458 
1840 5458 
1841 5458 
1842 5458 
1843 5458 
1844 5458 
1845 5458 
1846 5458 
1847 5458 
1848 5458 
1849 5458 
1850 5458 
1851 5458 
1852 5458 
1853 5458 
1854 5458 
1855 5458 
1856 5458 
1857 5458 
1858 5458 
1859 5458 
1860 5458 
1861 5458 
1862 5458 
1863 5458 
1864 5458 
1865 5458 
1866 5458 
1867 5458 
1868 5458 
1869 5458 
1870 5458 
1871 5458 
1872 5458 
1873 5458 
1874 5458 
1875 5458 
1876 5458 
1877 5458 
1878 5458 
1879 5458 
1880 5458 
1881 5458 
1882 5458 
1883 5458 
1884 5458 
1885 5458 
1886 5458 
1887 5458 
1888 5458 
1889 5458 
1890 5458 
1891 5458 
1892 5458 
1893 5458 
1894 5458 
1895 5458 
1896 5458 
1897 5458 
1898 5458 
1899 5458 
1900 5458 
1901 5458 
1902 5458 
1903 5458 
1904 5458 
1905 5458 
1906 5458 
1907 5458 
1908 5458 
1909 5458 
1910 5458 
1911 5458 
1912 5458 
1913 5458 
1914 5458 
1915 5458 
1916 5458 
1917 5458 
1918 5458 
1919 5458 
1920 5458 
1921 5458 
1922 5458 
1923 5458 
1924 5458 
1925 5458 
1926 5458 
1927 5458 
1928 5458 
1929 5458 
1930 5458 
1931 5458 
1932 5458 
1933 5458 
1934 5458 
1935 5458 
1936 5458 
1937 5458 
1938 5458 
1939 5458 
1940 5458 
1941 5458 
1942 5458 
1943 5458 
1944 5458 
1945 5458 
1946 5458 
1947 5458 
1948 5458 
1949 5458 
1950 5458 
1951 5458 
1952 5458 
1953 5458 
1954 5458 
1955 5458 
1956 5458 
1957 5458 
1958 5458 
1959 5458 
1960 5458 
1961 5458 
1962 5458 
1963 5458 
1964 5458 
1965 5458 
1966 5458 
1967 5458 
1968 5458 
1969 5458 
1970 5458 
1971 5458 
1972 5458 
1973 5458 
1974 5458 
1975 5458 
1976 5458 
1977 5458 
1978 5458 
1979 5458 
1980 5458 
1981 5458 
1982 5458 
1983 5458 
1984 5458 
1985 5458 
1986 5458 
1987 5458 
1988 5458 
1989 5458 
1990 5458 
1991 5458 
1992 5458 
1993 5458 
1994 5458 
1995 5458 
1996 5458 
1997 5458 
1998 5458 
1999 5458 
2000 5458 
2001 5458 
2002 5458 
2003 5458 
2004 5458 
2005 5458 
2006 5458 
2007 5458 
2008 5458 
2009 5458 
2010 5458 
2011 5458 
2012 5458 
2013 5458 
2014 5458 
2015 5458 
2016 5458 
2017 5458 
2018 5458 
2019 5458 
2020 5458 
2021 5458 
2022 5458 
2023 5458 
2024 5458 
2025 5458 
2026 5458 
2027 5458 
2028 5458 
2029 5458 
2030 5458 
2031 5458 
2032 5458 
2033 5458 
2034 5458 
2035 5458 
2036 5458 
2037 5458 
2038 5458 
2039 5458 
2040 5458 
2041 5458 
2042 5458 
2043 5458 
2044 5458 
2045 5458 
2046 5458 
2047 5458 
2048 5458 
2049 5458 
2050 5458 
2051 5458 
2052 5458 
2053 5458 
2054 5458 
2055 5458 
2056 5458 
2057 5458 
2058 5458 
2059 5458 
2060 5458 
2061 5458 
2062 5458 
2063 5458 
2064 5458 
2065 5458 
2066 5458 
2067 5458 
2068 5458 
2069 5458 
2070 5458 
2071 5458 
2072 5458 
2073 5458 
2074 5458 
2075 5458 
2076 5458 
2077 5458 
2078 5458 
2079 5458 
2080 5458 
2081 5458 
2082 5458 
2083 5458 
2084 5458 
2085 5458 
2086 5458 
2087 5458 
2088 5458 
2089 5458 
2090 5458 
2091 5458 
2092 5458 
2093 5458 
2094 5458 
2095 5458 
2096 5458 
2097 5458 
2098 5458 
2099 5458 
2100 5458 
2101 5458 
2102 5458 
2103 5458 
2104 5458 
2105 5458 
2106 5458 
2107 5458 
2108 5458 
2109 5458 
2110 5458 
2111 5458 
2112 5458 
2113 5458 
2114 5458 
2115 5458 
2116 5458 
2117 5458 
2118 5458 
2119 5458 
2120 5458 
2121 5458 
2122 5458 
2123 5458 
2124 5458 
2125 5458 
2126 5458 
2127 5458 
2128 5458 
2129 5458 
2130 5458 
2131 5458 
2132 5458 
2133 5458 
2134 5458 
2135 5458 
2136 5458 
2137 5458 
2138 5458 
2139 5458 
2140 5458 
2141 5458 
2142 5458 
2143 5458 
2144 5458 
2145 5458 
2146 5458 
2147 5458 
2148 5458 
2149 5458 
2150 5458 
2151 5458 
2152 5458 
2153 5458 
2154 5458 
2155 5458 
2156 5458 
2157 5458 
2158 5458 
2159 5458 
2160 5458 
2161 5458 
2162 5458 
2163 5458 
2164 5458 
2165 5458 
2166 5458 
2167 5458 
2168 5458 
2169 5458 
2170 5458 
2171 5458 
2172 5458 
2173 5458 
2174 5458 
2175 5458 
2176 5458 
2177 5458 
2178 5458 
2179 5458 
2180 5458 
2181 5458 
2182 5458 
2183 5458 
2184 5458 
2185 5458 
2186 5458 
2187 5458 
2188 5458 
2189 5458 
2190 5458 
2191 5458 
2192 5458 
2193 5458 
2194 5458 
2195 5458 
2196 5458 
2197 5458 
2198 5458 
2199 5458 
2200 5458 
2201 5458 
2202 5458 
2203 5458 
2204 5458 
2205 5458 
2206 5458 
2207 5458 
2208 5458 
2209 5458 
2210 5458 
2211 5458 
2212 5458 
2213 5458 
2214 5458 
2215 5458 
2216 5458 
2217 5458 
2218 5458 
2219 5458 
2220 5458 
2221 5458 
2222 5458 
2223 5458 
2224 5458 
2225 5458 
2226 5458 
2227 5458 
2228 5458 
2229 5458 
2230 5458 
2231 5458 
2232 5458 
2233 5458 
2234 5458 
2235 5458 
2236 5458 
2237 5458 
2238 5458 
2239 5458 
2240 5458 
2241 5458 
2242 5458 
2243 5458 
2244 5458 
2245 5458 
2246 5458 
2247 5458 
2248 5458 
2249 5458 
2250 5458 
2251 5458 
2252 5458 
2253 5458 
2254 5458 
2255 5458 
2256 5458 
2257 5458 
2258 5458 
2259 5458 
2260 5458 
2261 5458 
2262 5458 
2263 5458 
2264 5458 
2265 5458 
2266 5458 
2267 5458 
2268 5458 
2269 5458 
2270 5458 
2271 5458 
2272 5458 
2273 5458 
2274 5458 
2275 5458 
2276 5458 
2277 5458 
2278 5458 
2279 5458 
2280 5458 
2281 5458 
2282 5458 
2283 5458 
2284 5458 
2285 5458 
2286 5458 
2287 5458 
2288 5458 
2289 5458 
2290 5458 
2291 5458 
2292 5458 
2293 5458 
2294 5458 
2295 5458 
2296 5458 
2297 5458 
2298 5458 
2299 5458 
2300 5458 
2301 5458 
2302 5458 
2303 5458 
2304 5458 
2305 5458 
2306 5458 
2307 5458 
2308 5458 
2309 5458 
2310 5458 
2311 5458 
2312 5458 
2313 5458 
2314 5458 
2315 5458 
2316 5458 
2317 5458 
2318 5458 
2319 5458 
2320 5458 
2321 5458 
2322 5458 
2323 5458 
2324 5458 
2325 5458 
2326 5458 
2327 5458 
2328 5458 
2329 5458 
2330 5458 
2331 5458 
2332 5458 
2333 5458 
2334 5458 
2335 5458 
2336 5458 
2337 5458 
2338 5458 
2339 5458 
2340 5458 
2341 5458 
2342 5458 
2343 5458 
2344 5458 
2345 5458 
2346 5458 
2347 5458 
2348 5458 
2349 5458 
2350 5458 
2351 5458 
2352 5458 
2353 5458 
2354 5458 
2355 5458 
2356 5458 
2357 5458 
2358 5458 
2359 5458 
2360 5458 
2361 5458 
2362 5458 
2363 5458 
2364 5458 
2365 5458 
2366 5458 
2367 5458 
2368 5458 
2369 5458 
2370 5458 
2371 5458 
2372 5458 
2373 5458 
2374 5458 
2375 5458 
2376 5458 
2377 5458 
2378 5458 
2379 5458 
2380 5458 
2381 5458 
2382 5458 
2383 5458 
2384 5458 
2385 5458 
2386 5458 
2387 5458 
2388 5458 
2389 5458 
2390 5458 
2391 5458 
2392 5458 
2393 5458 
2394 5458 
2395 5458 
2396 5458 
2397 5458 
2398 5458 
2399 5458 
2400 5458 
2401 5458 
2402 5458 
2403 5458 
2404 5458 
2405 5458 
2406 5458 
2407 5458 
2408 5458 
2409 5458 
2410 5458 
2411 5458 
2412 5458 
2413 5458 
2414 5458 
2415 5458 
2416 5458 
2417 5458 
2418 5458 
2419 5458 
2420 5458 
2421 5458 
2422 5458 
2423 5458 
2424 5458 
2425 5458 
2426 5458 
2427 5458 
2428 5458 
2429 5458 
2430 5458 
2431 5458 
2432 5458 
2433 5458 
2434 5458 
2435 5458 
2436 5458 
2437 5458 
2438 5458 
2439 5458 
2440 5458 
2441 5458 
2442 5458 
2443 5458 
2444 5458 
2445 5458 
2446 5458 
2447 5458 
2448 5458 
2449 5458 
2450 5458 
2451 5458 
2452 5458 
2453 5458 
2454 5458 
2455 5458 
2456 5458 
2457 5458 
2458 5458 
2459 5458 
2460 5458 
2461 5458 
2462 5458 
2463 5458 
2464 5458 
2465 5458 
2466 5458 
2467 5458 
2468 5458 
2469 5458 
2470 5458 
2471 5458 
2472 5458 
2473 5458 
2474 5458 
2475 5458 
2476 5458 
2477 5458 
2478 5458 
2479 5458 
2480 5458 
2481 5458 
2482 5458 
2483 5458 
2484 5458 
2485 5458 
2486 5458 
2487 5458 
2488 5458 
2489 5458 
2490 5458 
2491 5458 
2492 5458 
2493 5458 
2494 5458 
2495 5458 
2496 5458 
2497 5458 
2498 5458 
2499 5458 
2500 5458 
2501 5458 
2502 5458 
2503 5458 
2504 5458 
2505 5458 
2506 5458 
2507 5458 
2508 5458 
2509 5458 
2510 5458 
2511 5458 
2512 5458 
2513 5458 
2514 5458 
2515 5458 
2516 5458 
2517 5458 
2518 5458 
2519 5458 
2520 5458 
2521 5458 
2522 5458 
2523 5458 
2524 5458 
2525 5458 
2526 5458 
2527 5458 
2528 5458 
2529 5458 
2530 5458 
2531 5458 
2532 5458 
2533 5458 
2534 5458 
2535 5458 
2536 5458 
2537 5458 
2538 5458 
2539 5458 
2540 5458 
2541 5458 
2542 5458 
2543 5458 
2544 5458 
2545 5458 
2546 5458 
2547 5458 
2548 5458 
2549 5458 
2550 5458 
2551 5458 
2552 5458 
2553 5458 
2554 5458 
2555 5458 
2556 5458 
2557 5458 
2558 5458 
2559 5458 
2560 5458 
2561 5458 
2562 5458 
2563 5458 
2564 5458 
2565 5458 
2566 5458 
2567 5458 
2568 5458 
2569 5458 
2570 5458 
2571 5458 
2572 5458 
2573 5458 
2574 5458 
2575 5458 
2576 5458 
2577 5458 
2578 5458 
2579 5458 
2580 5458 
2581 5458 
2582 5458 
2583 5458 
2584 5458 
2585 5458 
2586 5458 
2587 5458 
2588 5458 
2589 5458 
2590 5458 
2591 5458 
2592 5458 
2593 5458 
2594 5458 
2595 5458 
2596 5458 
2597 5458 
2598 5458 
2599 5458 
2600 5458 
2601 5458 
2602 5458 
2603 5458 
2604 5458 
2605 5458 
2606 5458 
2607 5458 
2608 5458 
2609 5458 
2610 5458 
2611 5458 
2612 5458 
2613 5458 
2614 5458 
2615 5458 
2616 5458 
2617 5458 
2618 5458 
2619 5458 
2620 5458 
2621 5458 
2622 5458 
2623 5458 
2624 5458 
2625 5458 
2626 5458 
2627 5458 
2628 5458 
2629 5458 

